p cnf 7230 16
-4690 -6393 -6396 0
-6394 6396 0
-4682 -6277 -6389 0
4682 -6390 0
6393 6394 0
6391 6392 0
6263 -6392 0
-6263 -6391 0
6389 6390 0
4690 -6394 0
6277 -6390 0
6395 6396 0
6267 -6396 0
-6267 -6395 0
4070 -6398 0
6387 6388 0
